29996
1,92,8,42,89,31,80,56,97,75,19,53,88,16,22,70,94,79,18,24,38,36,99,4,65,66,26,63,6,49,90,10,72,21,74,11,32,91,98,23,60,77,62,86,35,27,12,20,57,7,9,87,51,61,25,81,69,64,40,54,73,50,44,2,68,85,39,96,78,52,5,37,33,76,13,95,82,30,58,28,67,93,55,83,34,29,46,3,43,14,71,41,100,48,45,47,15,17,59,84,1
